c   #vars: 83   #clauses: 353   #literals: 958
c 
p cnf 83 353
-1 -2 0
47 -65 74 75 0
-4 -5 0
-6 -7 0
-8 -9 0
-10 -11 0
-12 -13 0
-14 -15 0
-16 -17 0
19 20 43 44 0
-19 -20 0
-21 -22 0
-23 -24 0
-25 -26 0
-27 -28 0
25 26 43 44 0
-29 -30 0
-31 -32 0
-33 -34 0
-35 -36 0
-37 -38 0
-39 -40 0
-41 -42 0
-43 -44 0
-45 -46 0
-10 48 67 68 0
51 52 61 62 0
14 15 48 -67 0
12 13 -49 80 0
-49 -50 0
-51 -52 0
12 13 67 68 0
25 26 67 68 0
-53 -54 0
-55 -56 0
-57 -58 0
-59 -60 0
-61 -62 0
-63 -64 0
-65 -66 0
-67 -68 0
-69 -70 0
-35 43 44 81 0
-72 -73 0
-74 -75 0
6 7 53 54 0
-76 -77 0
19 20 67 68 0
-78 -79 0
41 42 82 83 0
12 13 43 44 0
3 -49 55 56 0
-82 -83 0
27 28 69 70 0
-10 14 15 48 0
-2 -47 0
35 36 78 79 0
-1 -53 0
-2 -54 0
-1 -57 0
-2 -58 0
14 15 45 46 0
-1 -67 0
-2 -68 0
10 11 76 77 0
-1 47 74 75 0
-3 -38 0
49 50 67 68 0
1 2 47 -74 0
-3 -50 0
-12 16 17 80 0
1 2 47 -65 0
-3 -56 0
-4 -31 0
-5 -32 0
23 24 29 30 0
-4 -35 0
-5 -36 0
19 20 45 46 0
-4 -57 0
-5 -58 0
4 5 78 79 0
-4 -78 0
-5 -79 0
4 5 35 36 0
-6 -33 0
-7 -34 0
12 13 39 40 0
18 -33 63 64 0
23 24 57 58 0
-6 -53 0
-7 -54 0
-6 -59 0
-7 -60 0
-6 -72 0
-7 -73 0
29 30 74 75 0
3 37 38 -55 0
-8 -37 0
-9 -38 0
19 20 31 32 0
-8 -41 0
-9 -42 0
3 -37 49 50 0
-8 -51 0
-9 -52 0
23 24 78 79 0
-8 -69 0
-9 -70 0
21 22 65 66 0
12 13 -16 80 0
-11 -48 0
16 17 -49 80 0
-10 -69 0
-11 -70 0
-10 -76 0
-11 -77 0
-10 -78 0
-11 -79 0
-12 -39 0
-13 -40 0
16 17 76 77 0
-12 -43 0
-13 -44 0
16 17 74 75 0
-12 -59 0
-13 -60 0
16 17 53 54 0
-12 -67 0
-13 -68 0
-29 39 40 71 0
-12 -72 0
-13 -73 0
23 24 69 70 0
-13 -80 0
18 33 34 -63 0
-14 -39 0
-15 -40 0
8 9 41 42 0
-14 -45 0
-15 -46 0
51 52 63 64 0
-16 49 50 80 0
-15 -48 0
19 20 33 34 0
-14 -53 0
-15 -54 0
21 22 45 46 0
-35 37 38 81 0
-37 43 44 81 0
25 26 63 64 0
-16 -43 0
-17 -44 0
4 5 57 58 0
-16 -53 0
-17 -54 0
-29 41 42 71 0
-16 -59 0
-17 -60 0
45 46 76 77 0
-16 -74 0
-17 -75 0
6 7 33 34 0
-16 -76 0
-17 -77 0
27 28 61 62 0
-17 -80 0
-18 -32 0
55 56 59 60 0
-18 -34 0
18 -31 63 64 0
1 2 67 68 0
-18 -64 0
16 17 59 60 0
-19 -31 0
-20 -32 0
-19 -33 0
-20 -34 0
43 44 78 79 0
-19 -43 0
-20 -44 0
53 54 82 83 0
-19 -45 0
-20 -46 0
-19 -65 0
-20 -66 0
45 46 69 70 0
-19 -67 0
-20 -68 0
27 28 76 77 0
-19 -74 0
-20 -75 0
25 26 51 52 0
-21 -41 0
-22 -42 0
8 9 69 70 0
-21 -45 0
-22 -46 0
3 -37 55 56 0
-21 -65 0
-22 -66 0
37 38 59 60 0
-21 -82 0
-22 -83 0
8 9 37 38 0
-23 -29 0
-24 -30 0
27 28 29 30 0
-23 -51 0
-24 -52 0
18 -31 33 34 0
-23 -57 0
-24 -58 0
10 11 78 79 0
-23 -69 0
-24 -70 0
-14 48 67 68 0
-23 -78 0
-24 -79 0
31 32 57 58 0
-25 -43 0
-26 -44 0
27 28 31 32 0
-25 -51 0
-26 -52 0
-25 -63 0
-26 -64 0
4 5 31 32 0
-25 -65 0
-26 -66 0
31 32 82 83 0
-25 -67 0
-26 -68 0
-25 -78 0
-26 -79 0
-27 -29 0
-28 -30 0
33 34 63 64 0
-27 -31 0
-28 -32 0
-27 -61 0
-28 -62 0
16 17 43 44 0
-27 -69 0
-28 -70 0
43 44 69 70 0
-27 -76 0
-28 -77 0
43 44 76 77 0
29 30 -41 71 0
14 15 39 40 0
29 30 -39 71 0
6 7 59 60 0
35 36 -43 81 0
-30 -71 0
49 50 65 66 0
-29 -74 0
-30 -75 0
35 36 61 62 0
-31 -57 0
-32 -58 0
19 20 74 75 0
-31 -82 0
-32 -83 0
35 36 72 73 0
-33 -61 0
-34 -62 0
39 40 -41 71 0
-33 -63 0
-34 -64 0
39 40 72 73 0
-35 -61 0
-36 -62 0
51 52 59 60 0
-35 -72 0
-36 -73 0
-35 -78 0
-36 -79 0
-36 -81 0
-37 -59 0
-38 -60 0
47 65 66 -74 0
-38 -81 0
35 36 -37 81 0
-40 -71 0
3 49 50 -55 0
-39 -72 0
-40 -73 0
12 13 72 73 0
10 11 69 70 0
3 37 38 -49 0
-39 41 42 71 0
37 38 -43 81 0
-42 -71 0
55 56 61 62 0
-41 -82 0
-42 -83 0
25 26 78 79 0
-43 -69 0
-44 -70 0
6 7 72 73 0
-43 -76 0
-44 -77 0
19 20 65 66 0
-43 -78 0
-44 -79 0
21 22 82 83 0
18 31 32 -63 0
-44 -81 0
14 15 53 54 0
-45 -69 0
-46 -70 0
1 2 53 54 0
-45 -76 0
-46 -77 0
12 13 59 60 0
10 11 48 -67 0
-47 -66 0
21 22 41 42 0
10 11 -14 48 0
-47 -75 0
-12 49 50 80 0
-48 -68 0
-1 47 65 66 0
-49 -65 0
-50 -66 0
23 24 51 52 0
-49 -67 0
-50 -68 0
1 2 57 58 0
-50 -80 0
33 34 61 62 0
-51 -57 0
-52 -58 0
25 26 65 66 0
-51 -59 0
-52 -60 0
55 56 74 75 0
-51 -61 0
-52 -62 0
8 9 51 52 0
-51 -63 0
-52 -64 0
18 31 32 -33 0
51 52 57 58 0
-53 -82 0
-54 -83 0
-55 -59 0
-56 -60 0
-55 -61 0
-56 -62 0
-55 -74 0
-56 -75 0
